c File: instances/32_0.40_3.col
c
c Description: Random graph of size 32 vertices and P(0.39999999999999997) of edges between any two vertices.
p col 32 496
e 1 2
e 1 4
e 1 6
e 1 7
e 1 8
e 1 11
e 1 13
e 1 14
e 1 16
e 1 19
e 1 22
e 1 23
e 1 24
e 1 25
e 1 26
e 1 27
e 1 28
e 1 32
e 2 3
e 2 4
e 2 5
e 2 6
e 2 7
e 2 10
e 2 11
e 2 13
e 2 16
e 2 17
e 2 21
e 2 23
e 2 24
e 2 27
e 2 29
e 2 30
e 3 4
e 3 5
e 3 8
e 3 11
e 3 14
e 3 16
e 3 17
e 3 21
e 3 23
e 3 24
e 3 25
e 3 26
e 3 32
e 4 7
e 4 8
e 4 10
e 4 12
e 4 14
e 4 16
e 4 17
e 4 18
e 4 22
e 4 27
e 4 30
e 5 6
e 5 11
e 5 12
e 5 13
e 5 15
e 5 17
e 5 19
e 5 22
e 5 23
e 5 24
e 5 26
e 5 27
e 5 30
e 5 32
e 6 7
e 6 9
e 6 13
e 6 15
e 6 16
e 6 17
e 6 20
e 6 21
e 6 25
e 6 26
e 6 28
e 6 30
e 6 31
e 6 32
e 7 21
e 7 22
e 7 24
e 7 29
e 7 31
e 8 9
e 8 13
e 8 18
e 8 20
e 8 26
e 8 29
e 9 10
e 9 11
e 9 13
e 9 16
e 9 18
e 9 21
e 9 24
e 9 25
e 9 27
e 9 28
e 9 30
e 10 14
e 10 17
e 10 19
e 10 20
e 10 21
e 10 22
e 10 26
e 10 27
e 10 31
e 10 32
e 11 16
e 11 18
e 11 22
e 11 24
e 11 25
e 11 26
e 11 30
e 11 32
e 12 15
e 12 16
e 12 20
e 12 21
e 12 25
e 12 28
e 12 30
e 12 31
e 12 32
e 13 15
e 13 16
e 13 19
e 13 21
e 13 26
e 13 27
e 13 30
e 13 32
e 14 15
e 14 20
e 14 21
e 14 22
e 14 26
e 14 31
e 15 20
e 15 21
e 15 27
e 15 28
e 15 31
e 16 19
e 16 26
e 16 27
e 16 28
e 17 19
e 17 23
e 17 24
e 17 25
e 17 28
e 18 19
e 18 20
e 18 22
e 18 23
e 18 25
e 18 29
e 19 20
e 19 22
e 19 24
e 19 26
e 19 27
e 19 31
e 19 32
e 20 22
e 20 24
e 20 26
e 20 30
e 21 23
e 22 23
e 22 25
e 22 26
e 22 31
e 22 32
e 23 24
e 23 28
e 23 31
e 24 30
e 24 32
e 25 28
e 25 32
e 26 27
e 26 30
e 26 31
e 27 28
e 27 31
e 27 32
e 28 29
e 28 30
e 28 31